1626544
26,37,9,66,77,10,109,5,1,34,52,83,3,25,16,107,94,81,2,59,51,84,46,29,35,98,101,82,45,90,24,64,22,100,54,105,7,42,68,40,36,65,88,18,47,97,91,89,11,49,41,38,72,31,39,14,71,99,76,50,87,108,60,78,73,33,12,93,96,102,104,58,53,15,23,20,63,44,43,85,61,95,32,6,30,103,56,79,4,67,92,74,48,17,80,21,13,19,62,106,55,28,8,70,69,27,86,57,75